NAME 
ROWS
 N  OBJ
 L  R0      
 L  R1      
 L  R2      
 E  R3      
 E  R4      
 E  R5      
 E  R6      
 E  R7      
 E  R8      
 E  R9      
 E  R10     
 E  R11     
 E  R12     
 E  R13     
 E  R14     
 E  R15     
 E  R16     
 E  R17     
 E  R18     
 E  R19     
 E  R20     
 E  R21     
 E  R22     
COLUMNS
    MARKER    'MARKER'                 'INTORG'
    I0(11)    OBJ       -68
    I0(11)    R0        110
    I0(11)    R1        199
    I0(11)    R2        -12
    I0(11)    R5        5
    I0(11)    R6        18
    I0(11)    R7        14
    I0(11)    R8        13
    I0(11)    R10       17
    I0(11)    R12       6
    I0(11)    R13       12
    I0(11)    R22       1
    I1(13)    OBJ       -105
    I1(13)    R0        197
    I1(13)    R1        -68
    I1(13)    R2        -197
    I1(13)    R3        18
    I1(13)    R6        -1
    I1(13)    R7        3
    I1(13)    R8        15
    I1(13)    R9        11
    I1(13)    R11       1
    I1(13)    R12       15
    I1(13)    R13       1
    I1(13)    R14       10
    I1(13)    R22       1
    I2(11)    OBJ       117
    I2(11)    R0        -56
    I2(11)    R1        -45
    I2(11)    R2        83
    I2(11)    R3        11
    I2(11)    R5        1
    I2(11)    R6        19
    I2(11)    R7        8
    I2(11)    R9        5
    I2(11)    R11       -1
    I2(11)    R14       13
    I2(11)    R22       1
    I3(11)    OBJ       166
    I3(11)    R0        14
    I3(11)    R1        -166
    I3(11)    R2        157
    I3(11)    R4        12
    I3(11)    R5        3
    I3(11)    R6        5
    I3(11)    R9        12
    I3(11)    R10       4
    I3(11)    R11       14
    I3(11)    R14       3
    I3(11)    R22       1
    I4(12)    OBJ       -157
    I4(12)    R0        -133
    I4(12)    R1        -83
    I4(12)    R2        95
    I4(12)    R3        1
    I4(12)    R4        8
    I4(12)    R5        8
    I4(12)    R7        8
    I4(12)    R8        2
    I4(12)    R9        18
    I4(12)    R11       16
    I4(12)    R12       17
    I4(12)    R22       1
    I5(10)    OBJ       -185
    I5(10)    R0        101
    I5(10)    R1        44
    I5(10)    R2        64
    I5(10)    R5        10
    I5(10)    R7        1
    I5(10)    R8        11
    I5(10)    R10       16
    I5(10)    R12       17
    I5(10)    R13       3
    I5(10)    R22       1
    I6(9)     OBJ       -116
    I6(9)     R0        80
    I6(9)     R1        -165
    I6(9)     R2        118
    I6(9)     R8        14
    I6(9)     R9        -1
    I6(9)     R10       6
    I6(9)     R13       18
    I6(9)     R14       10
    I6(9)     R22       1
    I7(8)     OBJ       69
    I7(8)     R0        -200
    I7(8)     R1        60
    I7(8)     R2        -54
    I7(8)     R3        16
    I7(8)     R4        15
    I7(8)     R6        15
    I7(8)     R7        18
    I7(8)     R22       1
    I8(13)    OBJ       -146
    I8(13)    R0        192
    I8(13)    R1        164
    I8(13)    R2        95
    I8(13)    R3        8
    I8(13)    R5        6
    I8(13)    R6        3
    I8(13)    R8        10
    I8(13)    R9        9
    I8(13)    R10       5
    I8(13)    R11       15
    I8(13)    R13       -1
    I8(13)    R14       10
    I8(13)    R22       1
    I9(9)     OBJ       151
    I9(9)     R0        -186
    I9(9)     R1        181
    I9(9)     R2        52
    I9(9)     R4        8
    I9(9)     R7        13
    I9(9)     R8        15
    I9(9)     R10       1
    I9(9)     R13       5
    I9(9)     R22       1
    I10(11)   OBJ       199
    I10(11)   R0        18
    I10(11)   R1        188
    I10(11)   R2        164
    I10(11)   R3        -1
    I10(11)   R6        9
    I10(11)   R10       16
    I10(11)   R11       3
    I10(11)   R12       11
    I10(11)   R13       9
    I10(11)   R14       1
    I10(11)   R22       1
    I11(8)    OBJ       -189
    I11(8)    R0        -27
    I11(8)    R1        -127
    I11(8)    R2        34
    I11(8)    R3        19
    I11(8)    R7        11
    I11(8)    R9        14
    I11(8)    R14       5
    I11(8)    R22       1
    MARKER    'MARKER'                 'INTEND'
    C12(12)   OBJ       -1
    C12(12)   R0        -2
    C12(12)   R2        4
    C12(12)   R3        3
    C12(12)   R4        9
    C12(12)   R5        8
    C12(12)   R10       10
    C12(12)   R11       7
    C12(12)   R14       19
    C12(12)   R15       11
    C12(12)   R16       19
    C12(12)   R19       7
    C12(12)   R21       19
    C13(11)   OBJ       -4
    C13(11)   R0        6
    C13(11)   R1        4
    C13(11)   R2        -5
    C13(11)   R3        6
    C13(11)   R8        6
    C13(11)   R9        15
    C13(11)   R13       7
    C13(11)   R14       3
    C13(11)   R19       12
    C13(11)   R20       7
    C13(11)   R21       11
    C14(11)   OBJ       7
    C14(11)   R0        6
    C14(11)   R1        -3
    C14(11)   R2        1
    C14(11)   R7        1
    C14(11)   R9        3
    C14(11)   R15       2
    C14(11)   R16       18
    C14(11)   R17       17
    C14(11)   R18       3
    C14(11)   R19       -1
    C14(11)   R20       16
    C15(9)    R1        3
    C15(9)    R2        -7
    C15(9)    R3        9
    C15(9)    R7        7
    C15(9)    R8        1
    C15(9)    R9        6
    C15(9)    R16       3
    C15(9)    R18       5
    C15(9)    R19       18
    C16(10)   OBJ       -9
    C16(10)   R0        -2
    C16(10)   R1        -1
    C16(10)   R2        1
    C16(10)   R6        3
    C16(10)   R11       12
    C16(10)   R12       1
    C16(10)   R13       3
    C16(10)   R19       1
    C16(10)   R20       6
    C16(10)   R21       5
    C17(13)   OBJ       -2
    C17(13)   R0        2
    C17(13)   R1        -5
    C17(13)   R2        -7
    C17(13)   R3        15
    C17(13)   R4        5
    C17(13)   R6        -1
    C17(13)   R10       19
    C17(13)   R11       18
    C17(13)   R12       1
    C17(13)   R13       2
    C17(13)   R14       3
    C17(13)   R19       5
    C17(13)   R21       18
    C18(12)   OBJ       -4
    C18(12)   R0        4
    C18(12)   R1        -3
    C18(12)   R2        -7
    C18(12)   R4        1
    C18(12)   R6        3
    C18(12)   R8        4
    C18(12)   R9        6
    C18(12)   R10       5
    C18(12)   R12       18
    C18(12)   R17       3
    C18(12)   R18       6
    C18(12)   R21       11
    C19(14)   OBJ       -6
    C19(14)   R0        -2
    C19(14)   R1        -5
    C19(14)   R2        -9
    C19(14)   R3        14
    C19(14)   R4        14
    C19(14)   R5        11
    C19(14)   R7        7
    C19(14)   R11       -1
    C19(14)   R12       19
    C19(14)   R16       11
    C19(14)   R17       3
    C19(14)   R18       10
    C19(14)   R19       -1
    C19(14)   R20       12
    C20(1)    R3        1
    C21(1)    R4        1
    C22(1)    R5        1
    C23(1)    R6        1
    C24(1)    R7        1
    C25(1)    R8        1
    C26(1)    R9        1
    C27(1)    R10       1
    C28(1)    R11       1
    C29(1)    R12       1
    C30(1)    R13       1
    C31(1)    R14       1
    C32(1)    R15       1
    C33(1)    R16       1
    C34(1)    R17       1
    C35(1)    R18       1
    C36(1)    R19       1
    C37(1)    R20       1
    C38(1)    R21       1
    C39(1)    R22       1
RHS
    RHS1      R0        1.5014294584930298e+02
    RHS1      R1        -1.7085015951866052e+02
    RHS1      R2        1.7758148298824489e+02
    RHS1      R3        99
    RHS1      R4        81
    RHS1      R5        92
    RHS1      R6        62
    RHS1      R7        79
    RHS1      R8        91
    RHS1      R9        77
    RHS1      R10       68
    RHS1      R11       83
    RHS1      R12       74
    RHS1      R13       86
    RHS1      R14       50
    RHS1      R15       94
    RHS1      R16       51
    RHS1      R17       83
    RHS1      R18       75
    RHS1      R19       91
    RHS1      R20       67
    RHS1      R21       71
    RHS1      R22       4
BOUNDS
 UP BND1      I0(11)    2
 UP BND1      I1(13)    2
 UP BND1      I2(11)    2
 UP BND1      I3(11)    2
 UP BND1      I4(12)    2
 UP BND1      I5(10)    2
 UP BND1      I6(9)     2
 UP BND1      I7(8)     2
 UP BND1      I8(13)    2
 UP BND1      I9(9)     2
 UP BND1      I10(11)   2
 UP BND1      I11(8)    2
ENDATA
